NumSpokes = 6;
NumHubs = 2;
TruckTypes = {SmallTruck, BigTruck };

MinDepTime = [360, 400, 380, 340, 420, 370];
MaxArrTime = [1080, 1150, 1200, 900, 800, 1070];

Capacity = [400, 700];
CostPerKm = [10, 15];
KmPerHour = [55, 45];

LoadTime = [|
  30,55|
  35,50|];
Routes = [|
  200, 50|
  120, 100|
  -1, 110|
  70, 100|
  120,100|
  -1, 105|];

Shipments = [|
  0, 300, 250, 350, 145, 300|
  185, 0, 200, 221, 263, 197|
  143, 178, 0, 258, 221, 106|
   75, 135, 245, 0, 283, 155|
  123, 234, 143,  78, 0, 107|
  201, 157, 169, 212, 104, 0|];